param set_len = 34;
param target_sum = 9010483276;
param values := [1] 368182186 [2] 305768193 [3] 736652649 [4] 963323664 [5] 68455187 [6] 928528641 [7] 483214237 [8] 422636336 [9] 786311267 [10] 16645718 [11] 390305018 [12] 661141466 [13] 81166329 [14] 177673229 [15] 943332107 [16] 1002803249 [17] 514162639 [18] 691524204 [19] 181967627 [20] 142286102 [21] 621627600 [22] 699685629 [23] 201092827 [24] 652021276 [25] 619440345 [26] 720905103 [27] 349191437 [28] 173766330 [29] 595499522 [30] 33028408 [31] 797228618 [32] 341741095 [33] 701101309 [34] 632712234 ;
